#SOLVERNAME# PAJ_Gurobi_MOSEK_msd_subponly_noinit
#SOLVER# Pajarito.PajaritoSolver(3, 3600.0, 1.0e-5, true, Gurobi.GurobiSolver(nothing, Any[(:OutputFlag, 1), (:Threads, 8), (:IntFeasTol, 1.0e-9), (:FeasibilityTol, 1.0e-8), (:MIPGap, 1.0e-5)]), Pajarito.UnsetSolver(), 0, false, true, Mosek.MosekSolver(Any[(:LOG, 0), (:NUM_THREADS, 8), (:MSK_DPAR_INTPNT_CO_TOL_REL_GAP, 1.0e-10), (:MSK_DPAR_INTPNT_CO_TOL_PFEAS, 1.0e-10), (:MSK_DPAR_INTPNT_CO_TOL_DFEAS, 1.0e-10), (:MSK_DPAR_INTPNT_CO_TOL_NEAR_REL, 1000.0)]), true, true, false, false, true, false, false, true, false, false, false, false, false, false, true, 10.0, true, false, false, false, 1.0e-12, 1.0e-8, false, "")
#INSTANCE# expdesign_D_20_10.cbf.gz
#TIMELIMIT# 3600.0

Problem dimensions:
       variables |     331
     constraints |     817
   nonzeros in A |    2805

Cones summary:
Cone             | Count   | Min dim.  | Max dim. 
   Primal expon. |      10 |         3 |         3
   Pos. semidef. |       2 |      10^2 |      20^2

Variable types:
      continuous |     311
         integer |      20

Transforming data...               0.00s

Creating conic subproblem...       0.17s

Building MIP model...              0.00s

Solving conic relaxation...        0.18s
 - Relaxation status    =        Optimal
 - Relaxation bound     =      -0.078133
Academic license - for non-commercial use only
Warning for adding constraints: zero or small (< 1e-13) coefficients, ignored
Optimize a model with 612 rows, 331 columns and 7327 nonzeros
Variable types: 311 continuous, 20 integer (0 binary)
Coefficient statistics:
  Matrix range     [1e-13, 3e+03]
  Objective range  [1e+00, 1e+00]
  Bounds range     [0e+00, 0e+00]
  RHS range        [1e+00, 1e+02]
Warning: Model contains large matrix coefficient range
         Consider reformulating model or setting NumericFocus parameter
         to avoid numerical issues.
Presolve removed 521 rows and 191 columns
Presolve time: 0.00s
Presolved: 91 rows, 140 columns, 3501 nonzeros
Variable types: 120 continuous, 20 integer (0 binary)
Warning: Markowitz tolerance tightened to 0.0625

Root relaxation: unbounded, 30 iterations, 0.00 seconds

    Nodes    |    Current Node    |     Objective Bounds      |     Work
 Expl Unexpl |  Obj  Depth IntInf | Incumbent    BestBd   Gap | It/Node Time

     0     0  postponed    0               -          -      -     -    0s

Explored 0 nodes (30 simplex iterations) in 0.02 seconds
Thread count was 8 (of 16 available processors)

Solution count 0

Model is unbounded
Best objective -, best bound -, gap -

Starting MIP-solver-driven algorithm
WARNING: MIP solver returned status Unbounded but the conic relaxation solve succeeded; try tightening the conic solver tolerances (or submit an issue)

MIP-solver-driven algorithm summary:
 - Status               =    UnboundedOA
 - Best feasible        =           +Inf
 - Best bound           =  -7.813263e-02
 - Relative opt. gap    =            NaN
 - Total time (s)       =       7.31e-01

Timers (s):
 - Setup                =   1.68e-01
 -- Transform data      =   4.11e-04
 -- Create conic data   =   1.66e-01
 -- Create MIP data     =   1.50e-03
 - Algorithm            =   5.63e-01
 -- Solve relaxation    =   1.79e-01
 -- Get relaxation cuts =   2.02e-02
 -- MIP solver driving  =   2.20e-02
 -- Solve subproblems   =   0.00e+00
 -- Get subproblem cuts =   0.00e+00
 -- Get separation cuts =   0.00e+00

Counters:
 - Lazy callbacks       =     0
 -- Integer repeats     =     0
 -- Conic subproblems   =     0
 --- Infeasible         =     0
 --- Optimal            =     0
 --- Suboptimal         =     0
 --- UserLimit          =     0
 --- ConicFailure       =     0
 --- Other status       =     0
 -- Feasible solutions  =     0
 --- From subproblems   =     0
 --- In lazy callback   =     0
 - Heuristic callbacks  =     0
 -- Solutions passed    =     0

Solution returned by MIP solver

Rounds of full separation/subproblem cuts, and count of cuts added:
Cone             | Subp.  | Sep.   | Total  | Relax. | Viol. 
   Primal expon. |     10 |      0 |      0 |     10 |      0
   Pos. semidef. |      2 |      0 |      0 |     30 |      0

#STATUS# UnboundedOA
#OBJVAL# Inf
#OBJBOUND# -0.07813262645276087
#NODECOUNT# 0
#TIMESOLVER# 0.7307369709014893
#TIMEALL# 0.7312898635864258
#SOLUTION# [NaN,NaN,NaN,NaN,NaN,NaN,NaN,NaN,NaN,NaN,NaN,NaN,NaN,NaN,NaN,NaN,NaN,NaN,NaN,NaN,NaN,NaN,NaN,NaN,NaN,NaN,NaN,NaN,NaN,NaN,NaN,NaN,NaN,NaN,NaN,NaN,NaN,NaN,NaN,NaN,NaN,NaN,NaN,NaN,NaN,NaN,NaN,NaN,NaN,NaN,NaN,NaN,NaN,NaN,NaN,NaN,NaN,NaN,NaN,NaN,NaN,NaN,NaN,NaN,NaN,NaN,NaN,NaN,NaN,NaN,NaN,NaN,NaN,NaN,NaN,NaN,NaN,NaN,NaN,NaN,NaN,NaN,NaN,NaN,NaN,NaN,NaN,NaN,NaN,NaN,NaN,NaN,NaN,NaN,NaN,NaN,NaN,NaN,NaN,NaN,NaN,NaN,NaN,NaN,NaN,NaN,NaN,NaN,NaN,NaN,NaN,NaN,NaN,NaN,NaN,NaN,NaN,NaN,NaN,NaN,NaN,NaN,NaN,NaN,NaN,NaN,NaN,NaN,NaN,NaN,NaN,NaN,NaN,NaN,NaN,NaN,NaN,NaN,NaN,NaN,NaN,NaN,NaN,NaN,NaN,NaN,NaN,NaN,NaN,NaN,NaN,NaN,NaN,NaN,NaN,NaN,NaN,NaN,NaN,NaN,NaN,NaN,NaN,NaN,NaN,NaN,NaN,NaN,NaN,NaN,NaN,NaN,NaN,NaN,NaN,NaN,NaN,NaN,NaN,NaN,NaN,NaN,NaN,NaN,NaN,NaN,NaN,NaN,NaN,NaN,NaN,NaN,NaN,NaN,NaN,NaN,NaN,NaN,NaN,NaN,NaN,NaN,NaN,NaN,NaN,NaN,NaN,NaN,NaN,NaN,NaN,NaN,NaN,NaN,NaN,NaN,NaN,NaN,NaN,NaN,NaN,NaN,NaN,NaN,NaN,NaN,NaN,NaN,NaN,NaN,NaN,NaN,NaN,NaN,NaN,NaN,NaN,NaN,NaN,NaN,NaN,NaN,NaN,NaN,NaN,NaN,NaN,NaN,NaN,NaN,NaN,NaN,NaN,NaN,NaN,NaN,NaN,NaN,NaN,NaN,NaN,NaN,NaN,NaN,NaN,NaN,NaN,NaN,NaN,NaN,NaN,NaN,NaN,NaN,NaN,NaN,NaN,NaN,NaN,NaN,NaN,NaN,NaN,NaN,NaN,NaN,NaN,NaN,NaN,NaN,NaN,NaN,NaN,NaN,NaN,NaN,NaN,NaN,NaN,NaN,NaN,NaN,NaN,NaN,NaN,NaN,NaN,NaN,NaN,NaN,NaN,NaN,NaN,NaN,NaN,NaN,NaN,NaN,NaN,NaN,NaN,NaN,NaN,NaN,NaN,NaN,NaN,NaN,NaN,NaN,NaN]
